set Vertices := 7 33 35 36 37 ; 
param k := 35;
param m := 6;
set Edges := (7,35) (7,36) (7,37) (33,35) ;
set EdgesPrime := (7,36) (7,37) ;
param u := 
7 35 1
7 36 3
7 37 1
33 35 3
; 
param w := 
7 1
33 1
35 1
36 32
37 1
;